; benchmark generated from python API
(set-info :status unknown)
(declare-fun S_3 () Real)
(declare-fun A_1 () Real)
(declare-fun C () Real)
(declare-fun L_1 () Real)
(declare-fun S_4 () Real)
(declare-fun S_1 () Real)
(declare-fun S_2 () Real)
(declare-fun S_0 () Real)
(declare-fun A_4 () Real)
(declare-fun L_3 () Real)
(declare-fun A_0 () Real)
(declare-fun L_0 () Real)
(declare-fun L0 () Real)
(declare-fun A_3 () Real)
(declare-fun L_2 () Real)
(declare-fun A_2 () Real)
(assert
 (let (($x37 (>= L0 0.0)))
 (let (($x535 (>= C 5.0)))
 (let (($x14368 (<= (+ (* 2.0 C) A_1 (* (- 1.0) L_0) (* (- 1.0) S_4)) 0.0)))
 (let (($x14074 (<= (+ (* 3.0 C) S_0 (* (- 1.0) S_4)) 0.0)))
 (let (($x2446 (<= (+ (* (- 1.0) L_2) A_3 (* (- 1.0) S_4)) 0.0)))
 (let (($x14061 (<= (+ (* 3.0 C) L_3 (* (- 1.0) A_3) S_0) (- 5.0))))
 (let ((?x580 (* (- 1.0) L_0)))
 (let ((?x499 (* (- 1.0) A_3)))
 (let ((?x1290 (* 2.0 C)))
 (let ((?x13831 (+ ?x1290 A_1 L_3 ?x499 ?x580)))
 (let (($x74 (= L_3 L_2)))
 (let (($x18983 (or $x14368 (<= 0.0 (+ (* 3.0 C) S_0 ?x499 L_3)) (not (<= 0.0 (+ ?x1290 (* (- 1.0) A_2) L_2 S_0))))))
 (let ((?x503 (* (- 1.0) A_2)))
 (let ((?x11852 (+ ?x1290 ?x503 L_2 S_0)))
 (let (($x14661 (<= 0.0 ?x11852)))
 (let (($x14058 (<= (+ L_2 ?x503 ?x1290 S_0 A_3 (* (- 1.0) S_4) (* (- 1.0) L_3)) 0.0)))
 (let (($x64 (= L_2 L_1)))
 (let (($x15504 (or $x64 (<= ?x11852 (- 5.0)) (<= (+ C ?x503 L_2 A_1 ?x580) (- 5.0)))))
 (let (($x54 (= L_1 L_0)))
 (let (($x13453 (<= (+ C (* (- 1.0) S_2) S_0) 0.0)))
 (let (($x19407 (or (<= (+ ?x1290 S_0 (* (- 1.0) S_3)) 0.0) (<= (+ C A_1 ?x580 (* (- 1.0) S_3)) 0.0))))
 (let (($x14132 (or $x54 (<= (+ (* (- 3.0) C) (* (- 1.0) A_1) L_1 S_4) (- 5.0)))))
 (let (($x1540 (= L_3 L_1)))
 (let (($x19079 (or $x54 $x1540 (not (<= (+ (* (- 1.0) L_1) L_3 C ?x499 A_2) 0.0)) (= (+ (* (- 1.0) L_1) A_1 L_3 ?x1290 ?x499) 0.0))))
 (let (($x13323 (<= (+ (* (- 1.0) C) ?x503 A_3) 0.0)))
 (let (($x3428 (not (= L_2 L_3))))
 (let (($x13923 (<= (+ (* (- 1.0) L_1) L_3 C ?x499 A_2) 0.0)))
 (let (($x1684 (not (= L_1 L_2))))
 (let (($x1056 (not (<= 0.0 (+ (* (- 1.0) L_3) L_2)))))
 (let (($x19574 (or $x54 $x1056 $x13323 (<= (+ (* (- 2.0) C) (* (- 1.0) A_1) A_3) 0.0))))
 (let (($x13727 (or $x54 (<= (+ (* (- 1.0) C) (* (- 1.0) A_1) L_1 S_2) (- 5.0)))))
 (let (($x12722 (or $x64 $x74 (= (+ (* (- 1.0) C) ?x503 (* (- 1.0) L_3) L_2 A_3) 0.0))))
 (let (($x1065 (not (<= 0.0 (+ (* (- 1.0) L_2) L_1)))))
 (let (($x13268 (or $x54 $x1065 (<= (+ (* (- 1.0) C) A_2 (* (- 1.0) A_1)) 0.0))))
 (let (($x13243 (= (+ (* (- 1.0) C) A_2 (* (- 1.0) L_2) L_1 (* (- 1.0) A_1)) 0.0)))
 (let (($x12527 (<= 0.0 (+ (* (- 1.0) C) A_2 (* (- 1.0) L_2) (* (- 1.0) A_1) L_0))))
 (let (($x2291 (= L_2 L_0)))
 (let (($x2272 (not (= L_0 L_1))))
 (let (($x36 (>= L_0 L0)))
 (let (($x111 (>= S_1 S_0)))
 (let (($x114 (>= S_2 S_1)))
 (let (($x117 (>= S_3 S_2)))
 (let (($x122 (>= A_1 A_0)))
 (let (($x124 (>= A_3 A_2)))
 (let (($x125 (>= A_4 A_3)))
 (and (<= (+ A_2 (* (- 1.0) L_2)) S_4) (<= (+ A_1 (* (- 1.0) L_1)) S_3) (not (<= (+ A_2 (* (- 1.0) L_2)) S_3)) $x125 $x124 $x122 $x117 $x114 $x111 $x36 (or $x64 (<= (+ ?x503 L_2 S_2) (- 5.0))) (or $x74 $x1056) (or $x64 $x1065) (or $x74 (<= (+ C S_2 (* (- 1.0) S_4)) 0.0)) (or $x54 (not (<= 0.0 (+ (* (- 1.0) L_1) L_0)))) (or $x54 (<= (+ L_1 (* (- 1.0) A_1) S_1) (- 5.0))) (or $x2446 (<= (+ C S_2 (* (- 1.0) S_4)) 0.0)) (or $x2272 $x2291 $x12527) (or $x54 $x64 $x13243) $x13268 $x12722 (or $x54 $x13453) (or $x74 (<= (+ C L_3 ?x499 S_2) (- 5.0))) (or $x74 (<= (+ ?x1290 S_1 (* (- 1.0) S_4)) 0.0)) (or $x74 (<= (+ ?x1290 L_3 ?x499 S_1) (- 5.0))) (<= (+ (* (- 1.0) C) (* (- 1.0) A_1) L_0 S_2) 0.0) $x13727 (or $x2446 (<= (+ ?x1290 S_1 (* (- 1.0) S_4)) 0.0)) $x19574 (<= (+ (* (- 3.0) C) (* (- 1.0) A_1) L_0 S_4) 0.0) (<= (+ (* (- 4.0) C) (* (- 1.0) S_0) S_3) 0.0) (or $x1540 $x1684 $x13923) (<= (+ (* (- 3.0) C) S_3 L_0 (* (- 1.0) A_0)) 0.0) (or $x64 $x3428 $x13323) $x19079 $x14132 (or $x64 (<= (+ (* (- 2.0) C) ?x503 L_2 S_4) (- 5.0))) (or $x74 (<= (+ (* (- 1.0) C) L_3 ?x499 S_4) (- 5.0))) (or $x74 $x2272 (<= ?x13831 0.0)) (<= (+ L_1 (* (- 1.0) A_1) S_1) 0.0) $x19407 (or (<= (+ A_1 ?x580 (* (- 1.0) S_2)) 0.0) $x13453) (<= (+ (* (- 4.0) C) (* (- 1.0) S_1) S_4) 0.0) (or $x64 (<= (+ L_2 ?x503 C S_1) (- 5.0))) (<= (+ (* (- 4.0) C) S_4 L_0 (* (- 1.0) A_0)) 0.0) (or $x54 (<= (+ C (* (- 1.0) A_1) L_1 S_0) (- 5.0))) (or $x54 $x14074 (not $x14061)) $x15504 (or $x54 $x2446 $x14074) (<= (+ (* (- 1.0) C) L_2 ?x499 S_4) 0.0) (or $x14058 $x14074 $x14368 $x14661) $x18983 (or $x74 $x14061 $x14368) (or $x74 (<= ?x13831 (- 5.0)) $x14061) (or $x2446 $x14074 $x14368) $x535 $x37 (<= (+ (* (- 1.0) C) S_1 L_0 (* (- 1.0) A_0)) 0.0) (<= (+ L_0 S_0 (* (- 1.0) A_0)) 0.0) (<= (+ C S_1 (* (- 1.0) S_3)) 0.0) (<= (+ (* (- 2.0) C) S_1 (* (- 1.0) S_0)) 0.0) (<= (+ (* (- 2.0) C) L_0 S_2 (* (- 1.0) A_0)) 0.0) (<= (+ L_3 (* (- 1.0) A_4) S_4) 0.0) (<= (+ (* (- 3.0) C) S_2 (* (- 1.0) S_0)) 0.0) (<= (+ (* (- 5.0) C) (* (- 1.0) S_0) S_4) 0.0) (<= (+ (* (- 2.0) C) (* (- 1.0) S_2) S_3) 0.0) (<= (+ (* (- 3.0) C) (* (- 1.0) S_2) S_4) 0.0) (<= (+ (* (- 3.0) C) (* (- 1.0) S_1) S_3) 0.0) (<= (+ (* (- 2.0) C) S_2 (* (- 1.0) S_1)) 0.0) (<= (+ (* (- 2.0) C) (* (- 1.0) S_3) S_4) 0.0) (<= (+ L_1 (* (- 2.0) C) (* (- 1.0) A_1) S_3) 0.0))))))))))))))))))))))))))))))))))))))))))))))))
(check-sat)
